
Gurobi 8.1.0 (mac64) logging started Tue Aug 20 12:41:03 2019

Changed value of parameter LogFile to output/GurobiLog.txt
   Prev: gurobi.log  Default: 

Gurobi 8.1.0 (mac64) logging started Tue Aug 20 12:42:58 2019

Changed value of parameter LogFile to output/GurobiLog.txt
   Prev: gurobi.log  Default: 

Gurobi 8.1.0 (mac64) logging started Tue Aug 20 12:45:15 2019

Changed value of parameter LogFile to output/GurobiLog.txt
   Prev: gurobi.log  Default: 

Gurobi 8.1.0 (mac64) logging started Tue Aug 20 13:12:53 2019

Changed value of parameter LogFile to output/GurobiLog.txt
   Prev: gurobi.log  Default: 

Gurobi 8.1.0 (mac64) logging started Tue Aug 20 13:14:27 2019

Changed value of parameter LogFile to output/GurobiLog.txt
   Prev: gurobi.log  Default: 

Gurobi 8.1.0 (mac64) logging started Tue Aug 20 13:15:54 2019

Changed value of parameter LogFile to output/GurobiLog.txt
   Prev: gurobi.log  Default: 

Gurobi 8.1.0 (mac64) logging started Tue Aug 20 13:19:38 2019

Changed value of parameter LogFile to output/GurobiLog.txt
   Prev: gurobi.log  Default: 

Gurobi 8.1.0 (mac64) logging started Tue Aug 20 13:21:29 2019

Changed value of parameter LogFile to output/GurobiLog.txt
   Prev: gurobi.log  Default: 

Gurobi 8.1.0 (mac64) logging started Tue Aug 20 13:26:23 2019

Changed value of parameter LogFile to output/GurobiLog.txt
   Prev: gurobi.log  Default: 

Gurobi 8.1.0 (mac64) logging started Tue Aug 20 13:27:59 2019

Changed value of parameter LogFile to output/GurobiLog.txt
   Prev: gurobi.log  Default: 
